668 622 244 371 0 459 558 162 409 183
616 95 289 409 562 57 463 183 0 525
499 243 0 132 30 696 315 410 304 585
0 671 391 99 484 312 587 257 91 737
91 737 327 637 109 543 150 691 143 0
195 645 91 0 410 155 671 312 484 713
461 0 487 200 275 411 417 80 119 761
182 80 162 558 696 688 233 119 194 666
398 586 182 275 371 622 525 558 568 393
258 147 618 463 776 347 713 585 603 562
